letting n =  10
letting blocks =  [[1, 1], [1, 2], [1, 3], [1, 5], [1, 7], [1, 8], [2, 6], [2, 8], [2, 9], [3, 1], [3, 6], [4, 2], [4, 4], [4, 8], [4, 9], [5, 1], [5, 7], [6, 2], [6, 4], [6, 5], [6, 10], [7, 1], [7, 5], [7, 10], [8, 2], [8, 3], [8, 4], [8, 7], [8, 9], [9, 2], [9, 3], [10, 7], [10, 9], [10, 10]]
